WARNING: for repeatability, setting FPU to use double precision
============================[ Problem Statistics ]=============================
|                                                                             |
|  Number of variables:            50                                         |
|  Number of clauses:             218                                         |
|  Parse time:                   0.00 s                                       |
|                                                                             |
============================[ Search Statistics ]==============================
| Conflicts |          ORIGINAL         |          LEARNT          | Progress |
|           |    Vars  Clauses Literals |    Limit  Clauses Lit/Cl |          |
===============================================================================
===============================================================================
restarts              : 1
conflicts             : 51             (337748 /sec)
decisions             : 61             (0.00 % random) (403974 /sec)
propagations          : 685            (4536424 /sec)
conflict literals     : 165            (23.96 % deleted)
Memory used           : 20.00 MB
CPU time              : 0.000151 s

UNSATISFIABLE
